Read MPS format model from file dat/rmp/DER_96_32768_40.mps
Reading time = 5.88 seconds
: 32864 rows, 196896 columns, 17012342 nonzeros
Gurobi Optimizer version 9.0.0 build v9.0.0rc2 (linux64)
Optimize a model with 32864 rows, 196896 columns and 17012342 nonzeros
Model fingerprint: 0xebbe9fec
Coefficient statistics:
  Matrix range     [1e-13, 1e+01]
  Objective range  [8e-01, 1e+03]
  Bounds range     [2e+05, 2e+05]
  RHS range        [1e+00, 1e+00]
Ordering time: 0.10s

Barrier statistics:
 AA' NZ     : 2.972e+06
 Factor NZ  : 3.327e+06 (roughly 120 MBytes of memory)
 Factor Ops : 3.478e+08 (roughly 1 second per iteration)
 Threads    : 1

                  Objective                Residual
Iter       Primal          Dual         Primal    Dual     Compl     Time
   0   8.64282392e+09 -6.15766135e+08  3.24e+08 1.71e-02  9.79e+05     4s
   1   9.91827798e+07 -7.14372630e+07  3.27e+06 3.64e-12  1.03e+04     5s
   2   9.72446947e+06 -2.48891645e+07  3.13e+05 3.64e-12  1.09e+03     7s
   3   3.43086972e+05 -1.37915385e+07  3.39e+03 5.46e-12  8.07e+01     8s
   4   2.30406542e+05 -1.53347050e+06  1.11e-09 3.64e-12  8.95e+00    10s
   5   2.29840386e+05  1.33353455e+05  4.68e-09 3.64e-12  4.90e-01    11s
   6   2.28532472e+05  2.14791327e+05  2.84e-09 3.64e-12  6.98e-02    13s
   7   2.26611816e+05  2.20958350e+05  2.62e-09 3.64e-12  2.87e-02    14s
   8   2.25692228e+05  2.22290038e+05  1.89e-09 5.46e-12  1.73e-02    16s
   9   2.25437935e+05  2.22948004e+05  1.72e-09 3.64e-12  1.26e-02    17s
  10   2.25096326e+05  2.23446105e+05  1.99e-09 3.64e-12  8.38e-03    18s
  11   2.24606262e+05  2.23779424e+05  2.30e-09 3.64e-12  4.20e-03    20s
  12   2.24255944e+05  2.23965459e+05  5.42e-09 3.64e-12  1.47e-03    22s
  13   2.24182038e+05  2.24020618e+05  5.93e-09 3.64e-12  8.19e-04    23s
  14   2.24134645e+05  2.24071250e+05  9.25e-09 3.64e-12  3.22e-04    25s
  15   2.24116645e+05  2.24094512e+05  1.81e-08 3.64e-12  1.12e-04    27s
  16   2.24112314e+05  2.24098777e+05  2.36e-08 1.82e-12  6.87e-05    29s
  17   2.24108715e+05  2.24102516e+05  4.36e-08 1.82e-12  3.15e-05    30s
  18   2.24107377e+05  2.24103423e+05  4.09e-08 1.82e-12  2.01e-05    32s
  19   2.24106948e+05  2.24103995e+05  3.95e-08 1.82e-12  1.50e-05    33s
  20   2.24106427e+05  2.24104631e+05  6.10e-08 1.82e-12  9.11e-06    35s
  21   2.24106232e+05  2.24104952e+05  5.66e-08 1.82e-12  6.49e-06    36s
  22   2.24105887e+05  2.24105306e+05  9.53e-08 3.64e-12  2.95e-06    38s
  23   2.24105723e+05  2.24105399e+05  2.19e-07 3.64e-12  1.64e-06    40s
  24   2.24105677e+05  2.24105425e+05  2.60e-07 3.22e-12  1.28e-06    41s
  25   2.24105634e+05  2.24105464e+05  3.67e-07 3.17e-12  8.62e-07    42s
  26   2.24105589e+05  2.24105492e+05  1.34e-06 2.92e-12  4.92e-07    44s
  27   2.24105563e+05  2.24105519e+05  8.38e-07 2.10e-12  2.23e-07    45s
  28   2.24105550e+05  2.24105522e+05  6.22e-06 1.82e-12  1.42e-07    47s
  29   2.24105542e+05  2.24105526e+05  6.68e-06 1.82e-12  7.99e-08    48s
  30   2.24105537e+05  2.24105529e+05  1.29e-05 1.82e-12  4.19e-08    50s
  31   2.24105534e+05  2.24105530e+05  8.11e-06 1.82e-12  2.35e-08    51s
  32   2.24105532e+05  2.24105532e+05  5.35e-06 3.64e-12  1.54e-09    53s
  33   2.24105532e+05  2.24105532e+05  5.90e-05 3.64e-12  1.24e-10    55s
  34   2.24105531e+05  2.24105532e+05  1.93e-04 1.82e-12  6.26e-11    56s
  35   2.24105532e+05  2.24105532e+05  9.74e-05 1.82e-12  3.16e-11    58s
  36   2.24105531e+05  2.24105532e+05  2.35e-04 1.82e-12  1.79e-11    59s
  37   2.24105532e+05  2.24105532e+05  1.33e-04 1.82e-12  1.12e-11    63s
  38   2.24105532e+05  2.24105532e+05  8.64e-06 3.64e-12  1.53e-12    65s
  39   2.24105532e+05  2.24105532e+05  3.39e-06 1.82e-12  3.03e-13    67s
  40   2.24105531e+05  2.24105532e+05  6.74e-04 3.64e-12  1.56e-13    68s
  41   2.24105532e+05  2.24105532e+05  6.20e-06 3.64e-12  6.40e-16    70s
  42   2.24105532e+05  2.24105532e+05  6.88e-07 1.82e-12  6.40e-19    71s

Barrier solved model in 42 iterations and 70.79 seconds
Optimal objective 2.24105532e+05

Solve time: 70.812302052
Barrier iterations: 42
